decision_x1=[0,2];
decision_x2=[0,2];
decision_x3=[0,2];
decision_x4=[0,2];
decision_x5=[0,2];
decision_x6=[0,2];
decision_x7=[0,2];
decision_x8=[0,2];
decision_x9=[0,2];
decision_x10=[0,2];
decision_x11=[0,2];
decision_x12=[0,2];
decision_x13=[0,2];
decision_x14=[0,2];
decision_x15=[0,2];
random_y1=[0,2];
random_y2=[0,2];
random_y3=[0,2];
constraint_x4_x2=[
0,1,6.4|
0,2,8.9|
1,0,4.1|
1,2,4.6|
2,0,3.4|
2,1,3.8|
];
constraint_x4_x3=[
0,1,3.3|
0,2,8.5|
1,0,9.2|
1,2,7.2|
2,0,9.6|
2,1,7.9|
];
constraint_x5_x2=[
0,1,8.6|
0,2,9.9|
1,0,2.9|
1,2,0.51|
2,0,8.1|
2,1,8.5|
];
constraint_x5_x4=[
0,1,2.4|
0,2,6|
1,0,2.9|
1,2,7|
2,0,6.4|
2,1,6.2|
];
constraint_x6_x1=[
0,1,9.3|
0,2,8|
1,0,1.2|
1,2,8.5|
2,0,2.4|
2,1,3.5|
];
constraint_x6_x3=[
0,1,8.6|
0,2,2.7|
1,0,2.5|
1,2,7.7|
2,0,5.2|
2,1,8|
];
constraint_x7_x1=[
0,1,7.7|
0,2,1.5|
1,0,0.66|
1,2,8.4|
2,0,5.2|
2,1,4.6|
];
constraint_x7_x2=[
0,1,8.8|
0,2,4.9|
1,0,1.2|
1,2,4.1|
2,0,2.1|
2,1,2.3|
];
constraint_x7_x3=[
0,1,7.1|
0,2,3.9|
1,0,6.7|
1,2,6.6|
2,0,4.1|
2,1,0.52|
];
constraint_x7_x5=[
0,1,9.5|
0,2,6.5|
1,0,9.9|
1,2,8.5|
2,0,2.9|
2,1,7.3|
];
constraint_x7_x6=[
0,1,5.3|
0,2,6.2|
1,0,0.91|
1,2,8|
2,0,6.3|
2,1,3.3|
];
constraint_x8_x1=[
0,1,0.77|
0,2,1.2|
1,0,0.43|
1,2,3.1|
2,0,6.4|
2,1,1.8|
];
constraint_x8_x4=[
0,1,0.52|
0,2,6.8|
1,0,0.14|
1,2,1.5|
2,0,8.9|
2,1,2.5|
];
constraint_x8_x5=[
0,1,7.6|
0,2,0.61|
1,0,1.2|
1,2,9.6|
2,0,2.5|
2,1,0.99|
];
constraint_x8_x6=[
0,1,6.1|
0,2,5|
1,0,6|
1,2,6.4|
2,0,9.2|
2,1,5.8|
];
constraint_x8_x7=[
0,1,7|
0,2,4.8|
1,0,6.3|
1,2,2|
2,0,5.7|
2,1,3.9|
];
constraint_x9_x1=[
0,1,4.9|
0,2,7.9|
1,0,7.7|
1,2,8.1|
2,0,0.13|
2,1,4.8|
];
constraint_x9_x7=[
0,1,8.1|
0,2,9.5|
1,0,7.6|
1,2,6.6|
2,0,6.8|
2,1,7.6|
];
constraint_x10_x1=[
0,1,2.3|
0,2,0.32|
1,0,0.71|
1,2,3|
2,0,0.9|
2,1,0.037|
];
constraint_x10_x3=[
0,1,6.7|
0,2,4.8|
1,0,9.7|
1,2,2.7|
2,0,4.7|
2,1,2.8|
];
constraint_x10_x7=[
0,1,2.8|
0,2,2.6|
1,0,4.8|
1,2,0.089|
2,0,9.8|
2,1,3.5|
];
constraint_x11_x3=[
0,1,0.36|
0,2,9.9|
1,0,8.6|
1,2,2.7|
2,0,5|
2,1,0.5|
];
constraint_x11_x4=[
0,1,3.7|
0,2,5.3|
1,0,8.5|
1,2,8.7|
2,0,0.25|
2,1,1.8|
];
constraint_x11_x5=[
0,1,2.5|
0,2,2.7|
1,0,7.4|
1,2,1.8|
2,0,7.6|
2,1,1.7|
];
constraint_x11_x6=[
0,1,6.5|
0,2,2.1|
1,0,5.2|
1,2,8.6|
2,0,5|
2,1,6.1|
];
constraint_x11_x8=[
0,1,6.4|
0,2,3.3|
1,0,9.2|
1,2,4.5|
2,0,7.2|
2,1,4.3|
];
constraint_x12_x1=[
0,1,8.2|
0,2,1.3|
1,0,8.6|
1,2,8.4|
2,0,8.4|
2,1,0.45|
];
constraint_x12_x3=[
0,1,5.8|
0,2,5.4|
1,0,9.6|
1,2,2.6|
2,0,6.8|
2,1,2.4|
];
constraint_x12_x5=[
0,1,8.9|
0,2,0.55|
1,0,4.5|
1,2,2.9|
2,0,1.4|
2,1,6.9|
];
constraint_x12_x6=[
0,1,3.4|
0,2,9.1|
1,0,7.6|
1,2,9.5|
2,0,8.8|
2,1,2.3|
];
constraint_x12_x7=[
0,1,8.8|
0,2,8.2|
1,0,6.8|
1,2,8.8|
2,0,8.7|
2,1,8|
];
constraint_x12_x9=[
0,1,9.3|
0,2,2.3|
1,0,9|
1,2,6.5|
2,0,2.7|
2,1,0.47|
];
constraint_x12_x10=[
0,1,2.4|
0,2,9.1|
1,0,5.1|
1,2,4.9|
2,0,9.1|
2,1,6|
];
constraint_x13_x1=[
0,1,1.2|
0,2,8.6|
1,0,5|
1,2,6.1|
2,0,2.8|
2,1,6|
];
constraint_x13_x2=[
0,1,4.4|
0,2,0.99|
1,0,6.2|
1,2,7.1|
2,0,1.7|
2,1,6.6|
];
constraint_x13_x4=[
0,1,8.7|
0,2,9.5|
1,0,0.74|
1,2,2.3|
2,0,1|
2,1,3.6|
];
constraint_x13_x5=[
0,1,9.7|
0,2,4.2|
1,0,6.9|
1,2,7.4|
2,0,1.1|
2,1,8.8|
];
constraint_x13_x6=[
0,1,9.8|
0,2,1.9|
1,0,8.1|
1,2,5.1|
2,0,0.85|
2,1,4.7|
];
constraint_x13_x7=[
0,1,9.6|
0,2,2.4|
1,0,8.9|
1,2,9.6|
2,0,9.3|
2,1,8.1|
];
constraint_x13_x8=[
0,1,8.5|
0,2,4.1|
1,0,4.2|
1,2,1.2|
2,0,6.5|
2,1,1.9|
];
constraint_x13_x10=[
0,1,3.7|
0,2,7.7|
1,0,4.7|
1,2,2.3|
2,0,9.7|
2,1,4.8|
];
constraint_x14_x2=[
0,1,3|
0,2,7|
1,0,4.7|
1,2,5.4|
2,0,5.5|
2,1,5.8|
];
constraint_x14_x5=[
0,1,4.2|
0,2,9.6|
1,0,2.2|
1,2,6.2|
2,0,6.9|
2,1,2|
];
constraint_x14_x6=[
0,1,7.5|
0,2,4.5|
1,0,9.4|
1,2,9.1|
2,0,8.5|
2,1,7.1|
];
constraint_x14_x7=[
0,1,6.2|
0,2,0.96|
1,0,3.5|
1,2,7.6|
2,0,6.9|
2,1,2.7|
];
constraint_x14_x8=[
0,1,1.1|
0,2,3.4|
1,0,7.8|
1,2,1.9|
2,0,8.7|
2,1,3|
];
constraint_x14_x9=[
0,1,6.4|
0,2,9.2|
1,0,8.2|
1,2,1.4|
2,0,0.88|
2,1,4.2|
];
constraint_x14_x10=[
0,1,9.5|
0,2,5|
1,0,0.75|
1,2,5.4|
2,0,3.6|
2,1,0.65|
];
constraint_x14_x11=[
0,1,2.8|
0,2,3.9|
1,0,8.2|
1,2,9.1|
2,0,2.3|
2,1,6.2|
];
constraint_x15_x2=[
0,1,1.1|
0,2,9.5|
1,0,3.4|
1,2,7.4|
2,0,2.8|
2,1,2.6|
];
constraint_x15_x9=[
0,1,9.1|
0,2,0.78|
1,0,9.5|
1,2,8.3|
2,0,7.1|
2,1,1.5|
];
constraint_x15_x10=[
0,1,8.7|
0,2,2.7|
1,0,2.2|
1,2,2.5|
2,0,5.8|
2,1,3.7|
];
constraint_x15_x11=[
0,1,4|
0,2,8.4|
1,0,2.5|
1,2,0.49|
2,0,9.9|
2,1,8.2|
];
constraint_x1_y1=[
0,0,7.8|
0,1,3.1|
0,2,2.4|
1,0,5.3|
1,1,5|
1,2,8.1|
2,0,5|
2,1,6.4|
2,2,9.5|
];
constraint_x2_y2=[
0,0,9.4|
0,1,9.4|
0,2,6.4|
1,0,1.2|
1,1,9.4|
1,2,2.9|
2,0,6.1|
2,1,0.73|
2,2,8.6|
];
constraint_x3_y3=[
0,0,7.5|
0,1,3.8|
0,2,6|
1,0,3.1|
1,1,7.7|
1,2,7.6|
2,0,2.5|
2,1,1.7|
2,2,6.2|
];
initial_distribution_y1=[0.34,0.3,0.36];
initial_distribution_y2=[0.38,0.35,0.27];
initial_distribution_y3=[0.57,0.35,0.079];
transition_y1=[
0.094,0.49,0.41|
0.35,0.33,0.32|
0.22,0.66,0.12|
];
transition_y2=[
0.43,0.27,0.3|
0.24,0.68,0.074|
0.37,0.37,0.25|
];
transition_y3=[
0.34,0.38,0.29|
0.23,0.5,0.26|
0.12,0.44,0.44|
];
